
Gurobi 10.0.1 (win64) logging started Tue Aug 29 02:53:32 2023

Set parameter LogFile to value "results//log/URT_13_deadline.log"
Gurobi Optimizer version 10.0.1 build v10.0.1rc0 (win64)

CPU model: AMD Ryzen 7 3700X 8-Core Processor, instruction set [SSE2|AVX|AVX2]
Thread count: 8 physical cores, 16 logical processors, using up to 16 threads

Optimize a model with 656 rows, 451 columns and 2653 nonzeros
Model fingerprint: 0xf314dcce
Model has 1 quadratic constraint
Variable types: 54 continuous, 397 integer (396 binary)
Coefficient statistics:
  Matrix range     [1e+00, 1e+06]
  QMatrix range    [1e+00, 1e+00]
  QLMatrix range   [1e+00, 1e+01]
  Objective range  [1e+00, 1e+00]
  Bounds range     [1e+00, 1e+00]
  RHS range        [1e+00, 3e+06]
Presolve removed 81 rows and 168 columns
Presolve time: 0.00s
Presolved: 594 rows, 301 columns, 2647 nonzeros
Variable types: 72 continuous, 229 integer (228 binary)

Root relaxation: objective 0.000000e+00, 76 iterations, 0.00 seconds (0.00 work units)

    Nodes    |    Current Node    |     Objective Bounds      |     Work
 Expl Unexpl |  Obj  Depth IntInf | Incumbent    BestBd   Gap | It/Node Time

     0     0    0.00000    0    3          -    0.00000      -     -    0s
H    0     0                      58.0000000    0.00000   100%     -    0s
H    0     0                      56.0000000    0.00000   100%     -    0s
     0     0    0.00000    0    6   56.00000    0.00000   100%     -    0s
H    0     0                      52.0000000    0.00000   100%     -    0s
H    0     0                      47.0000000    0.00000   100%     -    0s
     0     0    0.00000    0   10   47.00000    0.00000   100%     -    0s
     0     0    0.00000    0    4   47.00000    0.00000   100%     -    0s
     0     0    0.00000    0    8   47.00000    0.00000   100%     -    0s
     0     0    0.00000    0    7   47.00000    0.00000   100%     -    0s
     0     0    0.00000    0   14   47.00000    0.00000   100%     -    0s
     0     0    0.00000    0    5   47.00000    0.00000   100%     -    0s
     0     0    0.00000    0    5   47.00000    0.00000   100%     -    0s
     0     2    0.00000    0    5   47.00000    0.00000   100%     -    0s
H   38    40                      45.0000000    0.00000   100%  29.8    0s
H   88   123                      44.0000000    0.00000   100%  23.9    0s
H  174   257                      43.0000000    0.00000   100%  15.9    0s
H  215   257                      41.0000000    0.00000   100%  14.7    0s
H  274   257                      34.0000000    0.00000   100%  13.1    0s
H  332   257                      30.0000000    0.00000   100%  12.1    0s
H  811   487                      29.0000000    0.00000   100%  10.2    0s
H  933   631                      28.0000000    0.00000   100%  10.2    0s
H 1213   613                      26.0000000    0.00000   100%  10.1    0s
H 2075   805                      25.0000000    0.00000   100%   8.5    1s
  4320  1697    6.00000   57   13   25.00000    0.00000   100%   8.0    5s
H17125  8077                      23.0000000    0.00000   100%  10.7    9s
 32192 14625 infeasible   45        23.00000    0.00000   100%  11.1   10s
H39624 16877                      22.0000000    0.00000   100%  11.4   11s
 58766 23522   17.00000   40    9   22.00000    0.00000   100%  12.2   15s
H86149 30639                      20.0000000    0.00000   100%  13.0   19s
 102291 34986    0.71429   31   20   20.00000    0.00000   100%  13.2   20s
 143506 44295    4.00000   41   12   20.00000    1.00000  95.0%  13.5   25s
 246331 67497    6.00000   42   13   20.00000    1.00000  95.0%  13.8   30s
 348327 88158 infeasible   48        20.00000    2.00000  90.0%  14.0   35s
 452644 103391    9.00000   45   11   20.00000    2.00000  90.0%  13.9   40s
 554626 117875 infeasible   46        20.00000    3.00000  85.0%  13.8   45s
 648466 127833 infeasible   52        20.00000    3.00000  85.0%  13.8   50s
 760986 141728   17.80000   57   13   20.00000    4.00000  80.0%  13.6   55s
 869388 149703   16.00000   51    9   20.00000    4.00000  80.0%  13.6   60s
 977244 157647 infeasible   58        20.00000    5.00000  75.0%  13.5   65s
 1089008 163684    5.00000   46   12   20.00000    5.00000  75.0%  13.3   70s
 1195390 170014   18.00000   49    8   20.00000    5.00000  75.0%  13.4   75s
 1298667 175796   14.00000   47    7   20.00000    6.00000  70.0%  13.3   80s
 1387199 176729 infeasible   47        20.00000    6.00000  70.0%  13.2   85s
 1482403 179480 infeasible   48        20.00000    7.00000  65.0%  13.1   90s
 1575684 180402 infeasible   41        20.00000    7.00000  65.0%  13.0   95s
 1662538 181407 infeasible   48        20.00000    8.00000  60.0%  13.0  100s
 1762307 181514    8.00000   50   12   20.00000    8.00000  60.0%  12.8  105s
 1838351 180411     cutoff   45        20.00000    8.00000  60.0%  12.8  110s
 1937149 181291   13.00000   44    8   20.00000    9.00000  55.0%  12.8  115s
 2031935 178806   17.00000   56    6   20.00000    9.00000  55.0%  12.7  120s
 2122832 178305 infeasible   50        20.00000   10.00000  50.0%  12.7  125s
 2222991 178634   17.00000   53    9   20.00000   10.00000  50.0%  12.5  130s
 2320006 173564   11.00000   53   12   20.00000   10.00000  50.0%  12.5  135s
 2411375 170399 infeasible   46        20.00000   11.00000  45.0%  12.5  140s
 2492994 166201 infeasible   50        20.00000   11.00000  45.0%  12.4  145s
 2586277 159706   15.00000   47   15   20.00000   11.00000  45.0%  12.3  150s
 2680889 155556   13.20976   52   10   20.00000   12.00000  40.0%  12.3  155s
 2773523 149320 infeasible   49        20.00000   12.00000  40.0%  12.2  160s
 2847435 143261 infeasible   43        20.00000   12.00000  40.0%  12.2  165s
 2936322 135523   16.00000   47   11   20.00000   13.00000  35.0%  12.2  170s
 3031952 124963 infeasible   47        20.00000   13.00000  35.0%  12.1  175s
 3114128 115765 infeasible   54        20.00000   14.00000  30.0%  12.0  180s
 3204248 104246   14.00000   50   12   20.00000   14.00000  30.0%  11.9  185s
 3278471 93799   16.00000   40    6   20.00000   15.00000  25.0%  11.9  190s
 3359206 81675   19.00000   55    5   20.00000   15.00000  25.0%  11.8  195s
 3438301 68248 infeasible   48        20.00000   16.00000  20.0%  11.8  200s
 3520486 52527 infeasible   45        20.00000   16.00000  20.0%  11.7  205s
 3604111 34687 infeasible   45        20.00000   17.00000  15.0%  11.7  210s
 3675637 16017 infeasible   56        20.00000   18.00000  10.0%  11.6  215s

Cutting planes:
  Learned: 2
  Gomory: 1
  Implied bound: 13
  MIR: 1
  Flow cover: 5

Explored 3719260 nodes (42981525 simplex iterations) in 217.62 seconds (110.81 work units)
Thread count was 16 (of 16 available processors)

Solution count 10: 20 20 22 ... 34

Optimal solution found (tolerance 1.00e-04)
Best objective 2.000000000000e+01, best bound 2.000000000000e+01, gap 0.0000%
Warning: constraint name "precedence between 0,2 to 0,0 if x_[j,l,h,z,i]=1" has a space
Warning: constraint name "precedence between 0,2 to 0,0 if x_[j,l,h,z,i]=1" has a space
Warning: default constraint names used to write mps file
